c POSIT generated this problem file.
c
p cnf 10 30
-10 -7 -1 0
9 -7 -1 0
2 8 -5 0
-5 -9 2 0
8 6 9 0
-3 9 -7 0
-1 -9 7 0
-3 1 -6 0
9 3 8 0
-3 -4 8 0
-7 4 -2 0
2 -3 4 0
4 2 10 0
7 -1 -2 0
-2 -10 -7 0
9 2 -1 0
-4 8 -9 0
7 -4 2 0
7 -4 10 0
-5 9 7 0
6 -7 -10 0
-4 -5 8 0
2 3 -8 0
4 -6 -3 0
-8 -6 5 0
-8 1 6 0
-6 1 4 0
-5 7 1 0
-8 7 9 0
2 3 -1 0
